17	4
19	19	25	14	
0	0	0	0	0	3	2	3	4	
10	4	0	0	7	2	6	17	
10	10	0	0	0	1	5	
4	5	0	0	0	2	7	17	
9	9	5	0	0	3	8	11	17	
125	4	4	7	9	3	14	15	17	
175	9	3	0	5	2	10	15	
50	0	0	8	0	2	9	17	
175	1	2	0	0	1	17	
50	9	10	0	7	2	11	13	
75	0	0	0	10	1	12	
175	7	9	10	3	1	17	
5	0	0	0	8	2	17	17	
2	0	0	4	0	2	16	17	
7	0	0	10	7	2	17	17	
9	0	10	0	0	1	17	
0	0	0	0	0	0	
